1 





































































55 20 
28 29 
37 73 
65 56 
30 76 
11 38 
63 74 
41 59 
34 75 
32 19 
25 16 
72 23 
70 53 

52 26 
54 24 
48 8 
68 10 
21 6 
44 39 
7 36 
27 4 
12 9 
57 43 
42 51 
66 13 
64 35 
61 47 
50 
2 46 
67 69 
3 33 
15 0 

5 
40 45 
18 
71 
60 14 
22 58 

49 62 

17 31 

